127 135248
1 16 51 2 13 115 100 58 64 113 125 89 92 99 65 66 55 47 49 46 112 111 107 127 93 94 118 53 48 103 95 123 97 98 101 102 63 119 70 71 68 74 73 67 8 72 19 4 20 108 6 106 12 14 41 43 34 38 39 42 40 36 37 35 44 45 54 57 121 56 124 52 5 50 10 3 91 61 116 90 60 62 59 104 110 85 86 87 88 109 96 69 75 76 78 80 79 31 27 30 26 25 29 33 28 122 32 83 82 126 81 84 117 77 18 21 17 22 23 24 9 11 15 114 105 7 120 
